NAME : mEgtspf.pid9555.gtsp.236592054.tour
COMMENT : Length = 236592054
COMMENT : Found by LKH [Keld Helsgaun] Wed Mar 19 20:23:11 2025
TYPE : TOUR
DIMENSION : 135
TOUR_SECTION
1
100
101
102
103
75
72
73
74
69
70
71
68
15
2
37
38
39
36
81
82
83
80
77
78
79
76
14
116
117
118
119
6
112
113
114
115
12
98
99
96
97
54
55
52
53
31
28
29
30
9
17
18
19
16
104
105
106
107
67
64
65
66
4
10
94
95
92
93
7
131
128
129
130
43
40
41
42
90
91
88
89
8
58
59
56
57
135
132
133
134
13
24
25
26
27
32
33
34
35
109
110
111
108
44
45
46
47
11
123
120
121
122
127
124
125
126
3
23
20
21
22
5
49
50
51
48
86
87
84
85
62
63
60
61
-1
EOF
